results_rootrelaxation/bin012_060_008.srr.sol
solution status: optimal solution found
objective value:                     2.86669524217745
_var747_                           0.0548649807115307 	(obj:1)
_var753_                            0.385340762966138 	(obj:0)
_var754_                            0.133733390484356 	(obj:0)
_var756_                             0.37719674239177 	(obj:0)
_var776_                           0.0510072867552506 	(obj:0)
_var781_                           0.0557222460351477 	(obj:0)
_var804_                            0.258465495070724 	(obj:0)
_var808_                          0.00985855122160317 	(obj:0)
_var815_                            0.126018002571796 	(obj:0)
_var818_                            0.653664809258465 	(obj:0)
_var819_                            0.543077582511788 	(obj:0)
_var822_                            0.276468066866695 	(obj:0)
_var828_                          0.00985855122160317 	(obj:1)
_var829_                           0.0510072867552512 	(obj:0)
_var837_                           0.0921560222888987 	(obj:0)
_var843_                           0.0308615516502356 	(obj:1)
_var848_                           0.0137162451778826 	(obj:0)
_var850_                            0.370338619802829 	(obj:0)
_var853_                           0.0694384912130303 	(obj:1)
_var862_                            0.116588084012002 	(obj:0)
_var865_                           0.0064294899271323 	(obj:0)
_var869_                            0.219459922846121 	(obj:0)
_var872_                            0.320188598371196 	(obj:0)
_var875_                            0.544363480497214 	(obj:0)
_var878_                            0.288041148735533 	(obj:0)
_var886_                            0.200600085726533 	(obj:1)
_var887_                           0.0368624089155593 	(obj:0)
_var893_                            0.148306900985855 	(obj:0)
_var897_                             0.30047149592799 	(obj:0)
_var898_                           0.0840120017145307 	(obj:0)
_var899_                             0.28932704672096 	(obj:1)
_var900_                            0.116159451350193 	(obj:0)
_var901_                            0.489927132447493 	(obj:0)
_var902_                            0.509644234890699 	(obj:0)
_var903_                            0.113159022717531 	(obj:1)
_var906_                           0.0617231033004711 	(obj:1)
_var909_                           0.0698671238748394 	(obj:0)
_var914_                             0.71067295327904 	(obj:1)
_var916_                           0.0184312044577794 	(obj:0)
_var917_                             0.22717531075868 	(obj:1)
_var920_                           0.0587226746678101 	(obj:1)
_var921_                            0.107158165452208 	(obj:0)
_var924_                           0.0617231033004717 	(obj:0)
_var925_                            0.178739819974281 	(obj:0)
_var927_                            0.180882983283326 	(obj:0)
_var928_                            0.232318902700386 	(obj:0)
_var929_                            0.155593656236605 	(obj:0)
_var931_                            0.162451778825547 	(obj:0)
_var932_                           0.0715816545220743 	(obj:0)
_var933_                           0.0557222460351477 	(obj:2)
_var937_                            0.113159022717531 	(obj:1)
_var938_                           0.0128589798542647 	(obj:1)
_var939_                           0.0561508786969568 	(obj:0)
_var940_                            0.120445777968281 	(obj:1)
_var941_                           0.0158594084869265 	(obj:1)
_var945_                            0.309472781825975 	(obj:0)
_var946_                           0.0694384912130308 	(obj:1)
_var949_                          0.00214316330904452 	(obj:0)
_var950_                            0.309472781825975 	(obj:1)
_var955_                           0.0625803686240896 	(obj:1)
_var958_                           0.0694384912130303 	(obj:1)
_var959_                            0.116159451350192 	(obj:1)
_var960_                          0.00428632661808835 	(obj:0)
_var961_                            0.037291041577368 	(obj:1)
_var963_                          0.00214316330904352 	(obj:1)
